c Instancia generada aleatoriamente
p edge 40 71
e 1 14
e 2 19
e 3 37
e 3 40
e 4 33
e 5 17
e 6 8
e 6 11
e 6 13
e 6 18
e 6 23
e 6 28
e 6 31
e 6 32
e 6 33
e 7 21
e 7 27
e 7 31
e 7 36
e 8 9
e 8 12
e 8 23
e 9 18
e 9 23
e 9 38
e 10 17
e 10 27
e 10 33
e 12 38
e 12 40
e 13 17
e 13 22
e 13 28
e 14 15
e 14 26
e 14 35
e 14 40
e 15 24
e 15 28
e 15 32
e 16 27
e 16 28
e 16 32
e 16 36
e 16 39
e 17 25
e 17 26
e 17 28
e 18 22
e 18 30
e 18 36
e 19 20
e 19 32
e 19 35
e 19 36
e 20 26
e 20 33
e 21 36
e 22 34
e 23 31
e 24 30
e 26 29
e 26 39
e 27 29
e 28 33
e 29 34
e 30 32
e 31 32
e 31 36
e 32 34
e 34 39
